beginners/examples/xyzwite.out.smt2
sat
(
; cardinality of U is 2
; rep: (as @U_0 U)
; rep: (as @U_1 U)
(define-fun b () Bool true)
(define-fun x () U (as @U_1 U))
(define-fun y () U (as @U_1 U))
(define-fun z () U (as @U_0 U))
(define-fun w () U (as @U_0 U))
)
